c Command line: hgen8 205 20
p cnf 205 317
77 67 185 182 0
27 187 66 124 0
59 2 196 200 0
10 12 24 68 0
17 25 4 23 0
15 129 205 169 0
9 69 136 146 0
112 56 101 113 0
201 177 184 159 0
84 142 204 165 0
76 191 85 178 0
14 114 60 135 0
194 97 61 134 0
48 170 99 92 0
128 166 75 121 0
19 164 82 3 0
198 199 102 193 0
115 70 174 41 0
107 94 147 33 0
11 46 144 145 0
175 160 20 109 0
7 148 122 190 0
172 140 161 188 0
31 58 79 50 0
125 117 138 173 0
35 179 120 192 0
65 39 141 80 0
111 110 47 51 0
157 189 90 176 0
53 108 89 64 0
104 1 203 151 0
98 116 30 130 0
132 137 22 133 0
119 167 44 103 0
152 43 42 49 0
13 186 78 74 0
45 16 32 105 0
168 171 52 91 0
95 36 40 81 0
150 181 73 106 0
158 96 6 180 0
21 71 38 195 0
-1 -2 0
-1 -3 0
-1 -4 0
-2 -3 0
-2 -4 0
-3 -4 0
-6 -7 0
-6 -9 0
-6 -10 0
-7 -9 0
-7 -10 0
-9 -10 0
-11 -12 0
-11 -13 0
-11 -14 0
-11 -15 0
-12 -13 0
-12 -14 0
-12 -15 0
-13 -14 0
-13 -15 0
-14 -15 0
-16 -17 0
-16 -19 0
-16 -20 0
-17 -19 0
-17 -20 0
-19 -20 0
-21 -22 0
-21 -23 0
-21 -24 0
-21 -25 0
-22 -23 0
-22 -24 0
-22 -25 0
-23 -24 0
-23 -25 0
-24 -25 0
-27 -30 0
-31 -32 0
-31 -33 0
-31 -35 0
-32 -33 0
-32 -35 0
-33 -35 0
-36 -38 0
-36 -39 0
-36 -40 0
-38 -39 0
-38 -40 0
-39 -40 0
-41 -42 0
-41 -43 0
-41 -44 0
-41 -45 0
-42 -43 0
-42 -44 0
-42 -45 0
-43 -44 0
-43 -45 0
-44 -45 0
-46 -47 0
-46 -48 0
-46 -49 0
-46 -50 0
-47 -48 0
-47 -49 0
-47 -50 0
-48 -49 0
-48 -50 0
-49 -50 0
-51 -52 0
-51 -53 0
-52 -53 0
-56 -58 0
-56 -59 0
-56 -60 0
-58 -59 0
-58 -60 0
-59 -60 0
-61 -64 0
-61 -65 0
-64 -65 0
-66 -67 0
-66 -68 0
-66 -69 0
-66 -70 0
-67 -68 0
-67 -69 0
-67 -70 0
-68 -69 0
-68 -70 0
-69 -70 0
-71 -73 0
-71 -74 0
-71 -75 0
-73 -74 0
-73 -75 0
-74 -75 0
-76 -77 0
-76 -78 0
-76 -79 0
-76 -80 0
-77 -78 0
-77 -79 0
-77 -80 0
-78 -79 0
-78 -80 0
-79 -80 0
-81 -82 0
-81 -84 0
-81 -85 0
-82 -84 0
-82 -85 0
-84 -85 0
-89 -90 0
-91 -92 0
-91 -94 0
-91 -95 0
-92 -94 0
-92 -95 0
-94 -95 0
-96 -97 0
-96 -98 0
-96 -99 0
-97 -98 0
-97 -99 0
-98 -99 0
-101 -102 0
-101 -103 0
-101 -104 0
-101 -105 0
-102 -103 0
-102 -104 0
-102 -105 0
-103 -104 0
-103 -105 0
-104 -105 0
-106 -107 0
-106 -108 0
-106 -109 0
-106 -110 0
-107 -108 0
-107 -109 0
-107 -110 0
-108 -109 0
-108 -110 0
-109 -110 0
-111 -112 0
-111 -113 0
-111 -114 0
-111 -115 0
-112 -113 0
-112 -114 0
-112 -115 0
-113 -114 0
-113 -115 0
-114 -115 0
-116 -117 0
-116 -119 0
-116 -120 0
-117 -119 0
-117 -120 0
-119 -120 0
-121 -122 0
-121 -124 0
-121 -125 0
-122 -124 0
-122 -125 0
-124 -125 0
-128 -129 0
-128 -130 0
-129 -130 0
-132 -133 0
-132 -134 0
-132 -135 0
-133 -134 0
-133 -135 0
-134 -135 0
-136 -137 0
-136 -138 0
-136 -140 0
-137 -138 0
-137 -140 0
-138 -140 0
-141 -142 0
-141 -144 0
-141 -145 0
-142 -144 0
-142 -145 0
-144 -145 0
-146 -147 0
-146 -148 0
-146 -150 0
-147 -148 0
-147 -150 0
-148 -150 0
-151 -152 0
-157 -158 0
-157 -159 0
-157 -160 0
-158 -159 0
-158 -160 0
-159 -160 0
-161 -164 0
-161 -165 0
-164 -165 0
-166 -167 0
-166 -168 0
-166 -169 0
-166 -170 0
-167 -168 0
-167 -169 0
-167 -170 0
-168 -169 0
-168 -170 0
-169 -170 0
-171 -172 0
-171 -173 0
-171 -174 0
-171 -175 0
-172 -173 0
-172 -174 0
-172 -175 0
-173 -174 0
-173 -175 0
-174 -175 0
-176 -177 0
-176 -178 0
-176 -179 0
-176 -180 0
-177 -178 0
-177 -179 0
-177 -180 0
-178 -179 0
-178 -180 0
-179 -180 0
-181 -182 0
-181 -184 0
-181 -185 0
-182 -184 0
-182 -185 0
-184 -185 0
-186 -187 0
-186 -188 0
-186 -189 0
-186 -190 0
-187 -188 0
-187 -189 0
-187 -190 0
-188 -189 0
-188 -190 0
-189 -190 0
-191 -192 0
-191 -193 0
-191 -194 0
-191 -195 0
-192 -193 0
-192 -194 0
-192 -195 0
-193 -194 0
-193 -195 0
-194 -195 0
-196 -198 0
-196 -199 0
-196 -200 0
-198 -199 0
-198 -200 0
-199 -200 0
-201 -203 0
-201 -204 0
-201 -205 0
-203 -204 0
-203 -205 0
-204 -205 0
